1 2 3 4 5 6 17 18 27 26 25 24 23 22 21 19 20 44 45 46 47 48 49 50 51 52 53 54 55 56 57 58 43 59 60 61 62 63 64 65 66 67 68 69 70 71 72 42 41 40 39 38 35 34 31 30 29 28 16 15 32 33 36 37 14 13 12 11 10 9 8 7 132 131 120 119 118 130 129 128 127 126 125 124 123 122 121 103 104 105 106 102 107 108 96 97 98 99 101 100 74 73 75 76 77 78 94 95 109 110 111 112 93 113 114 87 88 89 90 92 91 80 79 81 82 83 84 85 86 115 116 117 143 144 142 141 140 139 138 137 136 135 134 133
